p ds 483 922
1 2
1 22
2 3
2 23
3 4
3 24
4 25
4 5
5 26
5 6
6 27
6 7
7 28
7 8
8 9
8 29
9 10
9 30
10 11
10 31
11 12
11 32
12 33
12 13
13 34
13 14
14 35
14 15
15 36
15 16
16 17
16 37
17 18
17 38
18 19
18 39
19 20
19 40
20 41
20 21
21 42
22 43
22 23
23 44
23 24
24 25
24 45
25 26
25 46
26 27
26 47
27 28
27 48
28 49
28 29
29 50
29 30
30 51
30 31
31 52
31 32
32 33
32 53
33 34
33 54
34 35
34 55
35 36
35 56
36 57
36 37
37 58
37 38
38 59
38 39
39 60
39 40
40 41
40 61
41 42
41 62
42 63
43 44
43 64
44 65
44 45
45 66
45 46
46 67
46 47
47 68
47 48
48 49
48 69
49 50
49 70
50 51
50 71
51 52
51 72
52 73
52 53
53 74
53 54
54 75
54 55
55 76
55 56
56 57
56 77
57 58
57 78
58 59
58 79
59 60
59 80
60 81
60 61
61 82
61 62
62 83
62 63
63 84
64 65
64 85
65 66
65 86
66 67
66 87
67 68
67 88
68 89
68 69
69 90
69 70
70 91
70 71
71 92
71 72
72 73
72 93
73 74
73 94
74 75
74 95
75 76
75 96
76 97
76 77
77 98
77 78
78 99
78 79
79 100
79 80
80 81
80 101
81 82
81 102
82 83
82 103
83 84
83 104
84 105
85 106
85 86
86 107
86 87
87 108
87 88
88 89
88 109
89 90
89 110
90 91
90 111
91 92
91 112
92 113
92 93
93 114
93 94
94 115
94 95
95 116
95 96
96 97
96 117
97 98
97 118
98 99
98 119
99 100
99 120
100 121
100 101
101 122
101 102
102 123
102 103
103 124
103 104
104 105
104 125
105 126
106 107
106 127
107 108
107 128
108 129
108 109
109 130
109 110
110 131
110 111
111 132
111 112
112 113
112 133
113 114
113 134
114 115
114 135
115 116
115 136
116 137
116 117
117 138
117 118
118 139
118 119
119 140
119 120
120 121
120 141
121 122
121 142
122 123
122 143
123 124
123 144
124 145
124 125
125 146
125 126
126 147
127 148
127 128
128 129
128 149
129 130
129 150
130 131
130 151
131 132
131 152
132 153
132 133
133 154
133 134
134 155
134 135
135 156
135 136
136 137
136 157
137 138
137 158
138 139
138 159
139 140
139 160
140 161
140 141
141 162
141 142
142 163
142 143
143 164
143 144
144 145
144 165
145 146
145 166
146 147
146 167
147 168
148 169
148 149
149 170
149 150
150 171
150 151
151 172
151 152
152 153
152 173
153 154
153 174
154 155
154 175
155 156
155 176
156 177
156 157
157 178
157 158
158 179
158 159
159 180
159 160
160 161
160 181
161 162
161 182
162 163
162 183
163 164
163 184
164 185
164 165
165 186
165 166
166 187
166 167
167 188
167 168
168 189
169 170
169 190
170 171
170 191
171 172
171 192
172 193
172 173
173 194
173 174
174 195
174 175
175 196
175 176
176 177
176 197
177 178
177 198
178 179
178 199
179 180
179 200
180 201
180 181
181 202
181 182
182 203
182 183
183 204
183 184
184 185
184 205
185 186
185 206
186 187
186 207
187 188
187 208
188 209
188 189
189 210
190 211
190 191
191 212
191 192
192 193
192 213
193 194
193 214
194 195
194 215
195 196
195 216
196 217
196 197
197 218
197 198
198 219
198 199
199 220
199 200
200 201
200 221
201 202
201 222
202 203
202 223
203 204
203 224
204 225
204 205
205 226
205 206
206 227
206 207
207 228
207 208
208 209
208 229
209 210
209 230
210 231
211 212
211 232
212 233
212 213
213 234
213 214
214 235
214 215
215 236
215 216
216 217
216 237
217 218
217 238
218 219
218 239
219 220
219 240
220 241
220 221
221 242
221 222
222 243
222 223
223 244
223 224
224 225
224 245
225 226
225 246
226 227
226 247
227 228
227 248
228 249
228 229
229 250
229 230
230 251
230 231
231 252
232 233
232 253
233 234
233 254
234 235
234 255
235 236
235 256
236 257
236 237
237 258
237 238
238 259
238 239
239 260
239 240
240 241
240 261
241 242
241 262
242 243
242 263
243 244
243 264
244 265
244 245
245 266
245 246
246 267
246 247
247 268
247 248
248 249
248 269
249 250
249 270
250 251
250 271
251 252
251 272
252 273
253 274
253 254
254 275
254 255
255 276
255 256
256 257
256 277
257 258
257 278
258 259
258 279
259 260
259 280
260 281
260 261
261 282
261 262
262 283
262 263
263 284
263 264
264 265
264 285
265 266
265 286
266 267
266 287
267 268
267 288
268 289
268 269
269 290
269 270
270 291
270 271
271 292
271 272
272 273
272 293
273 294
274 275
274 295
275 276
275 296
276 297
276 277
277 298
277 278
278 299
278 279
279 300
279 280
280 281
280 301
281 282
281 302
282 283
282 303
283 284
283 304
284 305
284 285
285 306
285 286
286 307
286 287
287 308
287 288
288 289
288 309
289 290
289 310
290 291
290 311
291 292
291 312
292 313
292 293
293 314
293 294
294 315
295 316
295 296
296 297
296 317
297 298
297 318
298 299
298 319
299 300
299 320
300 321
300 301
301 322
301 302
302 323
302 303
303 324
303 304
304 305
304 325
305 306
305 326
306 307
306 327
307 308
307 328
308 329
308 309
309 330
309 310
310 331
310 311
311 332
311 312
312 313
312 333
313 314
313 334
314 315
314 335
315 336
316 337
316 317
317 338
317 318
318 339
318 319
319 340
319 320
320 321
320 341
321 322
321 342
322 323
322 343
323 324
323 344
324 345
324 325
325 346
325 326
326 347
326 327
327 348
327 328
328 329
328 349
329 330
329 350
330 331
330 351
331 332
331 352
332 353
332 333
333 354
333 334
334 355
334 335
335 356
335 336
336 357
337 338
337 358
338 339
338 359
339 340
339 360
340 361
340 341
341 362
341 342
342 363
342 343
343 364
343 344
344 345
344 365
345 346
345 366
346 347
346 367
347 348
347 368
348 369
348 349
349 370
349 350
350 371
350 351
351 372
351 352
352 353
352 373
353 354
353 374
354 355
354 375
355 356
355 376
356 377
356 357
357 378
358 379
358 359
359 380
359 360
360 361
360 381
361 362
361 382
362 363
362 383
363 364
363 384
364 385
364 365
365 386
365 366
366 387
366 367
367 388
367 368
368 369
368 389
369 370
369 390
370 371
370 391
371 372
371 392
372 393
372 373
373 394
373 374
374 395
374 375
375 396
375 376
376 377
376 397
377 378
377 398
378 399
379 380
379 400
380 401
380 381
381 402
381 382
382 403
382 383
383 404
383 384
384 385
384 405
385 386
385 406
386 387
386 407
387 388
387 408
388 409
388 389
389 410
389 390
390 411
390 391
391 412
391 392
392 393
392 413
393 394
393 414
394 395
394 415
395 396
395 416
396 417
396 397
397 418
397 398
398 419
398 399
399 420
400 401
400 421
401 402
401 422
402 403
402 423
403 404
403 424
404 425
404 405
405 426
405 406
406 427
406 407
407 428
407 408
408 409
408 429
409 410
409 430
410 411
410 431
411 412
411 432
412 433
412 413
413 434
413 414
414 435
414 415
415 436
415 416
416 417
416 437
417 418
417 438
418 419
418 439
419 420
419 440
420 441
421 442
421 422
422 443
422 423
423 444
423 424
424 425
424 445
425 426
425 446
426 427
426 447
427 428
427 448
428 449
428 429
429 450
429 430
430 451
430 431
431 452
431 432
432 433
432 453
433 434
433 454
434 435
434 455
435 436
435 456
436 457
436 437
437 458
437 438
438 459
438 439
439 460
439 440
440 441
440 461
441 462
442 443
442 463
443 444
443 464
444 465
444 445
445 466
445 446
446 467
446 447
447 468
447 448
448 449
448 469
449 450
449 470
450 451
450 471
451 452
451 472
452 473
452 453
453 474
453 454
454 475
454 455
455 476
455 456
456 457
456 477
457 458
457 478
458 459
458 479
459 460
459 480
460 481
460 461
461 482
461 462
462 483
463 464
464 465
465 466
466 467
467 468
468 469
469 470
470 471
471 472
472 473
473 474
474 475
475 476
476 477
477 478
478 479
479 480
480 481
481 482
482 483
